
Gurobi 11.0.1 (win64) logging started Tue May 14 18:56:32 2024

Set parameter LogFile to value "output/solver_log11.txt"
Gurobi Optimizer version 11.0.1 build v11.0.1rc0 (win64 - Windows 11.0 (22631.2))

CPU model: 11th Gen Intel(R) Core(TM) i7-1165G7 @ 2.80GHz, instruction set [SSE2|AVX|AVX2|AVX512]
Thread count: 4 physical cores, 8 logical processors, using up to 8 threads

Optimize a model with 1237 rows, 380 columns and 22875 nonzeros
Model fingerprint: 0xc89f78e7
Variable types: 88 continuous, 292 integer (292 binary)
Coefficient statistics:
  Matrix range     [4e-01, 1e+05]
  Objective range  [1e+00, 1e+02]
  Bounds range     [1e+00, 1e+00]
  RHS range        [1e-02, 1e+05]

User MIP start produced solution with objective 58541.2 (0.00s)
User MIP start produced solution with objective 58541.2 (0.01s)
Loaded user MIP start with objective 58541.2

Presolve removed 155 rows and 159 columns
Presolve time: 0.02s
Presolved: 1082 rows, 221 columns, 21561 nonzeros
Variable types: 81 continuous, 140 integer (138 binary)

Root relaxation: cutoff, 67 iterations, 0.00 seconds (0.00 work units)

    Nodes    |    Current Node    |     Objective Bounds      |     Work
 Expl Unexpl |  Obj  Depth IntInf | Incumbent    BestBd   Gap | It/Node Time

     0     0     cutoff    0      58541.1762 58541.1762  0.00%     -    0s

Explored 1 nodes (67 simplex iterations) in 0.06 seconds (0.08 work units)
Thread count was 8 (of 8 available processors)

Solution count 2: 58541.2 58541.2 

Optimal solution found (tolerance 1.00e-04)
Best objective 5.854117623338e+04, best bound 5.854117623338e+04, gap 0.0000%
